c description: Tseitin formula on Random 4-regular graph of 30 vertices, with odd charge
c generator: CNFgen (0.9.2)
c copyright: (C) 2012-2022 Massimo Lauria <massimo.lauria@uniroma1.it>
c url: https://massimolauria.net/cnfgen
c command line: cnfgen tseitin 30
c
p cnf 60 240
1 2 3 -4 0
1 2 -3 4 0
1 -2 3 4 0
1 -2 -3 -4 0
-1 2 3 4 0
-1 2 -3 -4 0
-1 -2 3 -4 0
-1 -2 -3 4 0
5 6 7 -8 0
5 6 -7 8 0
5 -6 7 8 0
5 -6 -7 -8 0
-5 6 7 8 0
-5 6 -7 -8 0
-5 -6 7 -8 0
-5 -6 -7 8 0
1 5 9 10 0
1 5 -9 -10 0
1 -5 9 -10 0
1 -5 -9 10 0
-1 5 9 -10 0
-1 5 -9 10 0
-1 -5 9 10 0
-1 -5 -9 -10 0
11 12 13 -14 0
11 12 -13 14 0
11 -12 13 14 0
11 -12 -13 -14 0
-11 12 13 14 0
-11 12 -13 -14 0
-11 -12 13 -14 0
-11 -12 -13 14 0
6 15 16 17 0
6 15 -16 -17 0
6 -15 16 -17 0
6 -15 -16 17 0
-6 15 16 -17 0
-6 15 -16 17 0
-6 -15 16 17 0
-6 -15 -16 -17 0
18 19 20 -21 0
18 19 -20 21 0
18 -19 20 21 0
18 -19 -20 -21 0
-18 19 20 21 0
-18 19 -20 -21 0
-18 -19 20 -21 0
-18 -19 -20 21 0
22 23 24 25 0
22 23 -24 -25 0
22 -23 24 -25 0
22 -23 -24 25 0
-22 23 24 -25 0
-22 23 -24 25 0
-22 -23 24 25 0
-22 -23 -24 -25 0
7 26 27 28 0
7 26 -27 -28 0
7 -26 27 -28 0
7 -26 -27 28 0
-7 26 27 -28 0
-7 26 -27 28 0
-7 -26 27 28 0
-7 -26 -27 -28 0
26 29 30 -31 0
26 29 -30 31 0
26 -29 30 31 0
26 -29 -30 -31 0
-26 29 30 31 0
-26 29 -30 -31 0
-26 -29 30 -31 0
-26 -29 -30 31 0
9 11 32 -33 0
9 11 -32 33 0
9 -11 32 33 0
9 -11 -32 -33 0
-9 11 32 33 0
-9 11 -32 -33 0
-9 -11 32 -33 0
-9 -11 -32 33 0
12 29 34 35 0
12 29 -34 -35 0
12 -29 34 -35 0
12 -29 -34 35 0
-12 29 34 -35 0
-12 29 -34 35 0
-12 -29 34 35 0
-12 -29 -34 -35 0
36 37 38 -39 0
36 37 -38 39 0
36 -37 38 39 0
36 -37 -38 -39 0
-36 37 38 39 0
-36 37 -38 -39 0
-36 -37 38 -39 0
-36 -37 -38 39 0
15 36 40 41 0
15 36 -40 -41 0
15 -36 40 -41 0
15 -36 -40 41 0
-15 36 40 -41 0
-15 36 -40 41 0
-15 -36 40 41 0
-15 -36 -40 -41 0
8 13 18 -42 0
8 13 -18 42 0
8 -13 18 42 0
8 -13 -18 -42 0
-8 13 18 42 0
-8 13 -18 -42 0
-8 -13 18 -42 0
-8 -13 -18 42 0
10 32 43 -44 0
10 32 -43 44 0
10 -32 43 44 0
10 -32 -43 -44 0
-10 32 43 44 0
-10 32 -43 -44 0
-10 -32 43 -44 0
-10 -32 -43 44 0
30 45 46 -47 0
30 45 -46 47 0
30 -45 46 47 0
30 -45 -46 -47 0
-30 45 46 47 0
-30 45 -46 -47 0
-30 -45 46 -47 0
-30 -45 -46 47 0
2 33 43 48 0
2 33 -43 -48 0
2 -33 43 -48 0
2 -33 -43 48 0
-2 33 43 -48 0
-2 33 -43 48 0
-2 -33 43 48 0
-2 -33 -43 -48 0
37 45 49 -50 0
37 45 -49 50 0
37 -45 49 50 0
37 -45 -49 -50 0
-37 45 49 50 0
-37 45 -49 -50 0
-37 -45 49 -50 0
-37 -45 -49 50 0
51 52 53 54 0
51 52 -53 -54 0
51 -52 53 -54 0
51 -52 -53 54 0
-51 52 53 -54 0
-51 52 -53 54 0
-51 -52 53 54 0
-51 -52 -53 -54 0
22 31 44 -55 0
22 31 -44 55 0
22 -31 44 55 0
22 -31 -44 -55 0
-22 31 44 55 0
-22 31 -44 -55 0
-22 -31 44 -55 0
-22 -31 -44 55 0
16 38 56 -57 0
16 38 -56 57 0
16 -38 56 57 0
16 -38 -56 -57 0
-16 38 56 57 0
-16 38 -56 -57 0
-16 -38 56 -57 0
-16 -38 -56 57 0
19 46 51 58 0
19 46 -51 -58 0
19 -46 51 -58 0
19 -46 -51 58 0
-19 46 51 -58 0
-19 46 -51 58 0
-19 -46 51 58 0
-19 -46 -51 -58 0
23 39 52 -56 0
23 39 -52 56 0
23 -39 52 56 0
23 -39 -52 -56 0
-23 39 52 56 0
-23 39 -52 -56 0
-23 -39 52 -56 0
-23 -39 -52 56 0
24 27 34 49 0
24 27 -34 -49 0
24 -27 34 -49 0
24 -27 -34 49 0
-24 27 34 -49 0
-24 27 -34 49 0
-24 -27 34 49 0
-24 -27 -34 -49 0
40 53 59 -60 0
40 53 -59 60 0
40 -53 59 60 0
40 -53 -59 -60 0
-40 53 59 60 0
-40 53 -59 -60 0
-40 -53 59 -60 0
-40 -53 -59 60 0
50 55 58 -59 0
50 55 -58 59 0
50 -55 58 59 0
50 -55 -58 -59 0
-50 55 58 59 0
-50 55 -58 -59 0
-50 -55 58 -59 0
-50 -55 -58 59 0
3 35 54 57 0
3 35 -54 -57 0
3 -35 54 -57 0
3 -35 -54 57 0
-3 35 54 -57 0
-3 35 -54 57 0
-3 -35 54 57 0
-3 -35 -54 -57 0
14 17 20 28 0
14 17 -20 -28 0
14 -17 20 -28 0
14 -17 -20 28 0
-14 17 20 -28 0
-14 17 -20 28 0
-14 -17 20 28 0
-14 -17 -20 -28 0
4 25 41 -42 0
4 25 -41 42 0
4 -25 41 42 0
4 -25 -41 -42 0
-4 25 41 42 0
-4 25 -41 -42 0
-4 -25 41 -42 0
-4 -25 -41 42 0
21 47 48 60 0
21 47 -48 -60 0
21 -47 48 -60 0
21 -47 -48 60 0
-21 47 48 -60 0
-21 47 -48 60 0
-21 -47 48 60 0
-21 -47 -48 -60 0
